81 56 60 106 93 12 111 66 74 0 36 9 29 59 33 90 112 24 53 96 84 78 110 102 10 89 26 11 40 17 104 31 6 2 55 91 50 80 1 70 21 94 7 105 49 92 32 22 39 108 71 52 62 37 101 8 67 4 99 5 83 14 30 43 72 98 58 15 48 23 79 28 42 77 35 82 3 69 44 109 76 68 100 13 73 85 46 34 95 114 25 16 54 47 19 113 75 45 57 61 97 103 86 27 18 63 64 41 51 88 20 38 107 65 87 